61
[[-1, 17344, 28387, 0, 0, 0, 0, 0, 0, 0, 0, 25861, 0, 43668, 0, 0, 0, 0, 0, 0, 0, 0, 0, 0, 0, 0, 0, 0, 0, 75605774, 0, 0, 7555, 0, 35477, 0, 33402, 30901, 20823, 0, 0, 0, 0, 0, 16528, 0, 0, 19171, 13525, 4122, 0, 0, 0, 0, 0, 0, 0, 0, 0, 0, 38089],[17344, -1, 0, 44352, 42285, 20212, 0, 26587, 0, 0, 35542, 2119135174, 0, 0, 0, 37947, 16454, 25592, 0, 40511, 0, 35378, 0, 0, 0, 0, 0, 0, 0, 0, 0, 20144, 0, 0, 0, 0, 0, 0, 0, 0, 29588, 0, 0, 0, 1892678379, 21128, 0, 0, 0, 39728, 0, 0, 0, 0, 0, 0, 0, 0, 35158, 31573, 0],[28387, 0, -1, 0, 0, 0, 0, 11859, 33824, 0, 0, 0, 0, 0, 0, 0, 0, 0, 0, 0, 38780, 0, 42284, 0, 0, 0, 0, 0, 0, 31930, 0, 0, 0, 0, 0, 0, 0, 0, 812997992, 0, 0, 0, 0, 18446, 0, 0, 11481, 0, 0, 43124, 0, 0, 24294, 2852, 0, 0, 10710, 38962, 0, 0, 0],[0, 44352, 0, -1, 0, 175037003, 0, 0, 4464, 45720, 1985062981, 0, 1821, 0, 0, 45547, 0, 28565, 0, 23801, 20400, 0, 21297, 40509, 0, 0, 0, 0, 0, 42333, 30587, 45918, 0, 0, 0, 0, 0, 0, 0, 27333, 0, 0, 28969, 0, 0, 0, 26448, 0, 0, 0, 0, 42519, 43790, 29477, 0, 0, 0, 0, 0, 341909967, 35172],[0, 42285, 0, 0, -1, 0, 0, 448055289, 0, 25917, 0, 0, 0, 32486, 0, 0, 0, 0, 0, 0, 0, 0, 0, 21459, 0, 44301, 0, 0, 41759, 0, 0, 0, 0, 0, 0, 0, 44161, 27460, 0, 31989, 1493368839, 0, 0, 0, 0, 877201123, 0, 0, 37550, 0, 0, 0, 41307, 0, 0, 0, 0, 41821, 0, 0, 0],[0, 20212, 0, 175037003, 0, -1, 45893, 0, 0, 0, 43985, 0, 19949, 0, 0, 0, 0, 0, 0, 0, 0, 41213, 0, 0, 0, 0, 18061, 40533, 0, 0, 0, 43199, 0, 0, 0, 0, 17487, 0, 0, 0, 0, 0, 22732, 0, 0, 24958, 0, 0, 0, 0, 0, 0, 27826, 0, 0, 0, 0, 22731, 42405, 0, 44915],[0, 0, 0, 0, 0, 45893, -1, 0, 0, 0, 34574, 30550, 0, 0, 0, 0, 0, 0, 0, 0, 0, 0, 0, 0, 0, 0, 0, 0, 0, 0, 40395, 0, 23075, 0, 0, 0, 0, 0, 33763, 0, 34128, 0, 0, 0, 40467, 0, 0, 0, 0, 0, 0, 0, 0, 8956, 34005, 0, 0, 0, 0, 0, 0],[0, 26587, 11859, 0, 448055289, 0, 0, -1, 0, 0, 0, 0, 0, 0, 0, 0, 0, 0, 0, 42040, 0, 0, 0, 0, 0, 0, 0, 0, 0, 0, 0, 0, 0, 0, 0, 0, 0, 0, 0, 0, 0, 0, 0, 35397, 0, 20945, 0, 40187, 0, 0, 0, 41028, 0, 0, 0, 34357, 0, 0, 0, 0, 0],[0, 0, 33824, 4464, 0, 0, 0, 0, -1, 3509, 0, 0, 0, 0, 0, 0, 0, 0, 0, 0, 0, 0, 0, 0, 42710, 0, 32138, 0, 0, 0, 30920, 0, 34339, 0, 0, 0, 0, 15781, 0, 0, 0, 0, 0, 0, 0, 0, 1548999210, 0, 0, 0, 0, 0, 0, 25810, 33980, 13884, 0, 0, 0, 0, 36314],[0, 0, 0, 45720, 25917, 0, 0, 0, 3509, -1, 23965, 0, 35617, 0, 0, 0, 0, 0, 0, 0, 0, 0, 0, 0, 1197281687, 17700, 0, 0, 0, 0, 31270, 0, 0, 0, 0, 0, 0, 37032, 0, 0, 0, 0, 0, 0, 28593, 34845, 0, 0, 11622, 0, 0, 0, 0, 0, 0, 0, 0, 0, 0, 0, 0],[0, 35542, 0, 1985062981, 0, 43985, 34574, 0, 0, 23965, -1, 0, 0, 0, 0, 0, 659067997, 36242, 0, 0, 0, 0, 0, 0, 0, 0, 30204, 0, 36347, 27139, 0, 0, 0, 0, 0, 0, 37461, 0, 0, 44472, 40926, 0, 0, 0, 44016, 0, 0, 0, 39579, 0, 0, 0, 0, 0, 0, 41878, 0, 44940, 0, 0, 27309],[25861, 2119135174, 0, 0, 0, 0, 30550, 0, 0, 0, 0, -1, 11185, 0, 0, 0, 0, 21163, 0, 0, 0, 0, 0, 0, 0, 0, 38317, 0, 0, 0, 0, 0, 0, 0, 0, 32603, 2122154433, 0, 0, 0, 29548, 0, 0, 36675, 0, 0, 0, 0, 0, 0, 36361, 0, 0, 0, 0, 0, 28130, 0, 0, 43041, 34767],[0, 0, 0, 1821, 0, 19949, 0, 0, 0, 35617, 0, 11185, -1, 0, 0, 0, 0, 39303, 34113, 21301, 35377, 0, 0, 0, 0, 31287, 21662, 29581, 25434, 0, 15333, 0, 13477, 0, 25190, 0, 20385, 0, 44123, 0, 0, 0, 39640, 28149, 0, 0, 0, 0, 0, 0, 0, 0, 0, 0, 0, 0, 0, 0, 0, 0, 0],[43668, 0, 0, 0, 32486, 0, 0, 0, 0, 0, 0, 0, 0, -1, 0, 0, 0, 0, 27552, 0, 0, 0, 0, 23696, 45180, 0, 24795, 28933, 0, 0, 0, 0, 0, 0, 29183, 0, 30100, 0, 0, 0, 0, 18040, 0, 0, 0, 0, 0, 0, 1057484620, 0, 0, 37266, 15605, 0, 0, 0, 0, 0, 0, 0, 0],[0, 0, 0, 0, 0, 0, 0, 0, 0, 0, 0, 0, 0, 0, -1, 0, 0, 0, 18858, 0, 0, 226399558, 44980, 0, 45227, 0, 0, 0, 0, 0, 0, 0, 36920, 25547, 31025, 0, 0, 0, 0, 0, 0, 0, 0, 0, 0, 0, 0, 0, 0, 0, 0, 0, 0, 44734, 0, 0, 0, 0, 0, 41667, 0],[0, 37947, 0, 45547, 0, 0, 0, 0, 0, 0, 0, 0, 0, 0, 0, -1, 0, 0, 35789, 40033, 0, 0, 6311, 0, 0, 0, 0, 0, 39341, 0, 0, 0, 0, 0, 19087, 44940, 30866, 0, 2116, 0, 19038, 0, 36224, 0, 0, 0, 0, 0, 23507, 0, 40171, 0, 0, 21599, 0, 0, 0, 0, 0, 36611, 0],[0, 16454, 0, 0, 0, 0, 0, 0, 0, 0, 659067997, 0, 0, 0, 0, 0, -1, 0, 45091, 0, 0, 0, 0, 0, 0, 0, 0, 0, 0, 0, 0, 0, 0, 0, 0, 0, 33078, 0, 0, 0, 0, 0, 0, 0, 22966, 43110, 0, 0, 0, 0, 0, 0, 0, 0, 0, 0, 46102, 42387, 0, 35573, 0],[0, 25592, 0, 28565, 0, 0, 0, 0, 0, 0, 36242, 21163, 39303, 0, 0, 0, 0, -1, 0, 0, 0, 0, 45261, 0, 0, 40045, 0, 0, 0, 43197, 0, 0, 0, 38321, 0, 0, 0, 43610, 0, 0, 43311, 0, 35935, 0, 44575, 0, 38976, 0, 0, 0, 0, 34328, 0, 45844, 0, 0, 0, 0, 0, 0, 33932],[0, 0, 0, 0, 0, 0, 0, 0, 0, 0, 0, 0, 34113, 27552, 18858, 35789, 45091, 0, -1, 0, 0, 23364, 0, 0, 0, 0, 0, 0, 0, 0, 0, 0, 0, 0, 0, 43407, 0, 0, 0, 0, 0, 45030, 0, 0, 0, 0, 0, 0, 40672, 0, 0, 0, 0, 0, 0, 0, 42996, 0, 17814, 0, 0],[0, 40511, 0, 23801, 0, 0, 0, 42040, 0, 0, 0, 0, 21301, 0, 0, 40033, 0, 0, 0, -1, 0, 0, 0, 43985, 0, 14301, 0, 0, 43971, 0, 0, 0, 20077, 0, 0, 0, 0, 0, 0, 38110, 0, 0, 0, 0, 0, 0, 45823, 0, 30883, 0, 15129, 0, 43459, 0, 0, 0, 0, 0, 0, 0, 33358],[0, 0, 38780, 20400, 0, 0, 0, 0, 0, 0, 0, 0, 35377, 0, 0, 0, 0, 0, 0, 0, -1, 37444, 0, 28770, 13855, 0, 0, 0, 0, 0, 9847, 0, 0, 0, 0, 19650, 0, 0, 0, 0, 0, 0, 0, 0, 0, 0, 0, 0, 0, 0, 0, 0, 534968364, 37538, 0, 0, 0, 7853, 0, 0, 0],[0, 35378, 0, 0, 0, 41213, 0, 0, 0, 0, 0, 0, 0, 0, 226399558, 0, 0, 0, 23364, 0, 37444, -1, 0, 0, 0, 0, 0, 38000, 0, 0, 39588, 0, 0, 0, 0, 0, 0, 34609, 0, 0, 0, 0, 0, 0, 0, 0, 36489, 0, 0, 0, 0, 0, 0, 0, 0, 8307, 0, 0, 0, 0, 0],[0, 0, 42284, 21297, 0, 0, 0, 0, 0, 0, 0, 0, 0, 0, 44980, 6311, 0, 45261, 0, 0, 0, 0, -1, 4367, 0, 0, 0, 0, 0, 0, 42421, 32568, 43494, 0, 18355, 0, 0, 32358, 0, 0, 0, 0, 0, 43123, 20220, 0, 37769, 42535, 0, 34237, 0, 22828, 27248, 0, 38740, 0, 735783720, 0, 38613, 0, 18307],[0, 0, 0, 40509, 21459, 0, 0, 0, 0, 0, 0, 0, 0, 23696, 0, 0, 0, 0, 0, 43985, 28770, 0, 4367, -1, 0, 0, 0, 0, 25347, 0, 29910, 0, 45810, 36441, 0, 0, 0, 0, 0, 43591, 0, 0, 32064, 0, 0, 0, 0, 18294, 34412, 0, 15875, 0, 0, 0, 0, 0, 0, 0, 0, 0, 0],[0, 0, 0, 0, 0, 0, 0, 0, 42710, 1197281687, 0, 0, 0, 45180, 45227, 0, 0, 0, 0, 0, 13855, 0, 0, 0, -1, 0, 29588, 0, 0, 34143, 0, 17849, 0, 31280, 0, 0, 0, 0, 36656, 0, 0, 0, 0, 24025, 31432, 0, 0, 0, 0, 0, 0, 0, 0, 0, 22823, 7398, 0, 37962, 0, 0, 31948],[0, 0, 0, 0, 44301, 0, 0, 0, 0, 17700, 0, 0, 31287, 0, 0, 0, 0, 40045, 0, 14301, 0, 0, 0, 0, 0, -1, 32727, 40264, 0, 0, 0, 0, 0, 0, 0, 0, 0, 0, 0, 43897, 0, 0, 0, 0, 0, 44310, 0, 0, 0, 39925, 25354, 42505, 0, 35215, 0, 0, 0, 0, 17235, 0, 0],[0, 0, 0, 0, 0, 18061, 0, 0, 32138, 0, 30204, 38317, 21662, 24795, 0, 0, 0, 0, 0, 0, 0, 0, 0, 0, 29588, 32727, -1, 0, 0, 14353, 0, 0, 0, 0, 0, 0, 0, 0, 0, 0, 0, 0, 0, 26951, 36309, 0, 0, 0, 0, 21291, 0, 0, 45446, 0, 0, 0, 0, 0, 0, 0, 0],[0, 0, 0, 0, 0, 40533, 0, 0, 0, 0, 0, 0, 29581, 28933, 0, 0, 0, 0, 0, 0, 0, 38000, 0, 0, 0, 40264, 0, -1, 0, 0, 0, 0, 0, 35110, 0, 0, 0, 0, 37581, 0, 0, 0, 0, 0, 0, 46021, 0, 15300, 0, 23076, 0, 0, 0, 39757, 0, 0, 0, 0, 0, 0, 0],[0, 0, 0, 0, 41759, 0, 0, 0, 0, 0, 36347, 0, 25434, 0, 0, 39341, 0, 0, 0, 43971, 0, 0, 0, 25347, 0, 0, 0, 0, -1, 0, 43348, 0, 40443, 0, 0, 0, 0, 35787, 0, 0, 0, 0, 0, 0, 0, 0, 0, 0, 25042, 0, 28666, 0, 0, 13949, 0, 0, 9797, 0, 0, 0, 0],[75605774, 0, 31930, 42333, 0, 0, 0, 0, 0, 0, 27139, 0, 0, 0, 0, 0, 0, 43197, 0, 0, 0, 0, 0, 0, 34143, 0, 14353, 0, 0, -1, 33064, 0, 0, 0, 0, 0, 0, 0, 0, 42505, 0, 0, 0, 0, 0, 38080, 0, 46307, 23523, 0, 0, 0, 0, 0, 0, 0, 0, 0, 0, 27017, 0],[0, 0, 0, 30587, 0, 0, 40395, 0, 30920, 31270, 0, 0, 15333, 0, 0, 0, 0, 0, 0, 0, 9847, 39588, 42421, 29910, 0, 0, 0, 0, 43348, 33064, -1, 0, 0, 13979, 34693, 0, 30513, 0, 26222, 0, 45214, 0, 29040, 0, 0, 0, 0, 0, 0, 0, 24977, 10487, 25677, 0, 0, 43702, 0, 0, 0, 0, 0],[0, 20144, 0, 45918, 0, 43199, 0, 0, 0, 0, 0, 0, 0, 0, 0, 0, 0, 0, 0, 0, 0, 0, 32568, 0, 17849, 0, 0, 0, 0, 0, 0, -1, 0, 0, 0, 0, 0, 38032, 0, 0, 0, 0, 0, 28511, 0, 44455, 0, 0, 0, 41199, 0, 0, 36674, 0, 40788, 22214, 0, 0, 0, 24571, 0],[7555, 0, 0, 0, 0, 0, 23075, 0, 34339, 0, 0, 0, 13477, 0, 36920, 0, 0, 0, 0, 20077, 0, 0, 43494, 45810, 0, 0, 0, 0, 40443, 0, 0, 0, -1, 0, 1872418117, 0, 0, 0, 0, 0, 15638, 0, 0, 0, 0, 30437, 35575, 282065143, 44893, 0, 0, 39662, 0, 0, 0, 40104, 0, 0, 0, 0, 0],[0, 0, 0, 0, 0, 0, 0, 0, 0, 0, 0, 0, 0, 0, 25547, 0, 0, 38321, 0, 0, 0, 0, 0, 36441, 31280, 0, 0, 35110, 0, 0, 13979, 0, 0, -1, 0, 0, 0, 25322, 40532, 0, 0, 0, 36880, 0, 0, 0, 0, 0, 13582, 0, 0, 0, 0, 0, 0, 38259, 0, 34462, 0, 40050, 0],[35477, 0, 0, 0, 0, 0, 0, 0, 0, 0, 0, 0, 25190, 29183, 31025, 19087, 0, 0, 0, 0, 0, 0, 18355, 0, 0, 0, 0, 0, 0, 0, 34693, 0, 1872418117, 0, -1, 34977, 0, 0, 44155, 0, 0, 0, 0, 36840, 0, 0, 14688, 0, 0, 3456, 0, 0, 0, 0, 27930, 0, 2598, 0, 0, 0, 17486],[0, 0, 0, 0, 0, 0, 0, 0, 0, 0, 0, 32603, 0, 0, 0, 44940, 0, 0, 43407, 0, 19650, 0, 0, 0, 0, 0, 0, 0, 0, 0, 0, 0, 0, 0, 34977, -1, 0, 0, 0, 0, 0, 0, 0, 18970, 0, 0, 40888, 0, 28051, 0, 0, 0, 0, 0, 0, 0, 0, 0, 25992, 0, 36430],[33402, 0, 0, 0, 44161, 17487, 0, 0, 0, 0, 37461, 2122154433, 20385, 30100, 0, 30866, 33078, 0, 0, 0, 0, 0, 0, 0, 0, 0, 0, 0, 0, 0, 30513, 0, 0, 0, 0, 0, -1, 0, 0, 0, 0, 23195, 0, 43570, 0, 0, 0, 0, 0, 0, 0, 0, 0, 0, 0, 0, 36161, 0, 0, 0, 0],[30901, 0, 0, 0, 27460, 0, 0, 0, 15781, 37032, 0, 0, 0, 0, 0, 0, 0, 43610, 0, 0, 0, 34609, 32358, 0, 0, 0, 0, 0, 35787, 0, 0, 38032, 0, 25322, 0, 0, 0, -1, 18022, 0, 0, 0, 0, 44330, 43607, 38583, 0, 0, 0, 0, 0, 0, 0, 0, 0, 0, 11200, 29031, 0, 32623, 0],[20823, 0, 812997992, 0, 0, 0, 33763, 0, 0, 0, 0, 0, 44123, 0, 0, 2116, 0, 0, 0, 0, 0, 0, 0, 0, 36656, 0, 0, 37581, 0, 0, 26222, 0, 0, 40532, 44155, 0, 0, 18022, -1, 0, 0, 27546, 0, 0, 0, 0, 0, 0, 40011, 44413, 29670, 0, 0, 0, 0, 31582, 0, 0, 0, 46155, 0],[0, 0, 0, 27333, 31989, 0, 0, 0, 0, 0, 44472, 0, 0, 0, 0, 0, 0, 0, 0, 38110, 0, 0, 0, 43591, 0, 43897, 0, 0, 0, 42505, 0, 0, 0, 0, 0, 0, 0, 0, 0, -1, 0, 31848, 0, 0, 18882, 17824, 0, 0, 0, 44599, 0, 33584, 0, 0, 0, 36059, 42419, 39068, 0, 0, 5694],[0, 29588, 0, 0, 1493368839, 0, 34128, 0, 0, 0, 40926, 29548, 0, 0, 0, 19038, 0, 43311, 0, 0, 0, 0, 0, 0, 0, 0, 0, 0, 0, 0, 45214, 0, 15638, 0, 0, 0, 0, 0, 0, 0, -1, 6204, 0, 0, 37690, 0, 0, 0, 0, 0, 0, 0, 32513, 28426, 0, 0, 0, 0, 0, 0, 0],[0, 0, 0, 0, 0, 0, 0, 0, 0, 0, 0, 0, 0, 18040, 0, 0, 0, 0, 45030, 0, 0, 0, 0, 0, 0, 0, 0, 0, 0, 0, 0, 0, 0, 0, 0, 0, 23195, 0, 27546, 31848, 6204, -1, 31708, 37886, 0, 0, 0, 0, 3241, 0, 0, 16248, 0, 0, 0, 39215, 10396, 17971, 0, 0, 0],[0, 0, 0, 28969, 0, 22732, 0, 0, 0, 0, 0, 0, 39640, 0, 0, 36224, 0, 35935, 0, 0, 0, 0, 0, 32064, 0, 0, 0, 0, 0, 0, 29040, 0, 0, 36880, 0, 0, 0, 0, 0, 0, 0, 31708, -1, 0, 22403, 41765, 0, 0, 0, 0, 0, 42448, 0, 8610, 0, 0, 34515, 41404, 24065, 0, 0],[0, 0, 18446, 0, 0, 0, 0, 35397, 0, 0, 0, 36675, 28149, 0, 0, 0, 0, 0, 0, 0, 0, 0, 43123, 0, 24025, 0, 26951, 0, 0, 0, 0, 28511, 0, 0, 36840, 18970, 43570, 44330, 0, 0, 0, 37886, 0, -1, 0, 0, 0, 45485, 0, 0, 0, 0, 41781, 0, 0, 14596, 0, 45438, 16472, 33028, 0],[16528, 1892678379, 0, 0, 0, 0, 40467, 0, 0, 28593, 44016, 0, 0, 0, 0, 0, 22966, 44575, 0, 0, 0, 0, 20220, 0, 31432, 0, 36309, 0, 0, 0, 0, 0, 0, 0, 0, 0, 0, 43607, 0, 18882, 37690, 0, 22403, 0, -1, 0, 0, 15000, 0, 0, 0, 44251, 30281, 0, 0, 0, 0, 0, 0, 0, 0],[0, 21128, 0, 0, 877201123, 24958, 0, 20945, 0, 34845, 0, 0, 0, 0, 0, 0, 43110, 0, 0, 0, 0, 0, 0, 0, 0, 44310, 0, 46021, 0, 38080, 0, 44455, 30437, 0, 0, 0, 0, 38583, 0, 17824, 0, 0, 41765, 0, 0, -1, 42970, 44876, 0, 0, 0, 18619, 0, 41539, 0, 0, 0, 29629, 0, 40636, 0],[0, 0, 11481, 26448, 0, 0, 0, 0, 1548999210, 0, 0, 0, 0, 0, 0, 0, 0, 38976, 0, 45823, 0, 36489, 37769, 0, 0, 0, 0, 0, 0, 0, 0, 0, 35575, 0, 14688, 40888, 0, 0, 0, 0, 0, 0, 0, 0, 0, 42970, -1, 8602, 0, 0, 0, 0, 0, 37927, 13170, 26822, 0, 0, 31592, 19485, 13253],[19171, 0, 0, 0, 0, 0, 0, 40187, 0, 0, 0, 0, 0, 0, 0, 0, 0, 0, 0, 0, 0, 0, 42535, 18294, 0, 0, 0, 15300, 0, 46307, 0, 0, 282065143, 0, 0, 0, 0, 0, 0, 0, 0, 0, 0, 45485, 15000, 44876, 8602, -1, 0, 0, 9080, 27536, 0, 0, 0, 0, 0, 0, 39953, 0, 0],[13525, 0, 0, 0, 37550, 0, 0, 0, 0, 11622, 39579, 0, 0, 1057484620, 0, 23507, 0, 0, 40672, 30883, 0, 0, 0, 34412, 0, 0, 0, 0, 25042, 23523, 0, 0, 44893, 13582, 0, 28051, 0, 0, 40011, 0, 0, 3241, 0, 0, 0, 0, 0, 0, -1, 0, 0, 0, 0, 36882, 0, 0, 30435, 30356, 0, 0, 0],[4122, 39728, 43124, 0, 0, 0, 0, 0, 0, 0, 0, 0, 0, 0, 0, 0, 0, 0, 0, 0, 0, 0, 34237, 0, 0, 39925, 21291, 23076, 0, 0, 0, 41199, 0, 0, 3456, 0, 0, 0, 44413, 44599, 0, 0, 0, 0, 0, 0, 0, 0, 0, -1, 14117, 0, 0, 0, 0, 0, 20461, 0, 0, 0, 0],[0, 0, 0, 0, 0, 0, 0, 0, 0, 0, 0, 36361, 0, 0, 0, 40171, 0, 0, 0, 15129, 0, 0, 0, 15875, 0, 25354, 0, 0, 28666, 0, 24977, 0, 0, 0, 0, 0, 0, 0, 29670, 0, 0, 0, 0, 0, 0, 0, 0, 9080, 0, 14117, -1, 0, 0, 0, 0, 0, 0, 0, 43855, 1247575983, 0],[0, 0, 0, 42519, 0, 0, 0, 41028, 0, 0, 0, 0, 0, 37266, 0, 0, 0, 34328, 0, 0, 0, 0, 22828, 0, 0, 42505, 0, 0, 0, 0, 10487, 0, 39662, 0, 0, 0, 0, 0, 0, 33584, 0, 16248, 42448, 0, 44251, 18619, 0, 27536, 0, 0, 0, -1, 0, 0, 0, 9582, 0, 0, 0, 45632, 0],[0, 0, 24294, 43790, 41307, 27826, 0, 0, 0, 0, 0, 0, 0, 15605, 0, 0, 0, 0, 0, 43459, 534968364, 0, 27248, 0, 0, 0, 45446, 0, 0, 0, 25677, 36674, 0, 0, 0, 0, 0, 0, 0, 0, 32513, 0, 0, 41781, 30281, 0, 0, 0, 0, 0, 0, 0, -1, 0, 0, 0, 0, 0, 0, 0, 0],[0, 0, 2852, 29477, 0, 0, 8956, 0, 25810, 0, 0, 0, 0, 0, 44734, 21599, 0, 45844, 0, 0, 37538, 0, 0, 0, 0, 35215, 0, 39757, 13949, 0, 0, 0, 0, 0, 0, 0, 0, 0, 0, 0, 28426, 0, 8610, 0, 0, 41539, 37927, 0, 36882, 0, 0, 0, 0, -1, 0, 0, 42138, 41661, 0, 0, 0],[0, 0, 0, 0, 0, 0, 34005, 0, 33980, 0, 0, 0, 0, 0, 0, 0, 0, 0, 0, 0, 0, 0, 38740, 0, 22823, 0, 0, 0, 0, 0, 0, 40788, 0, 0, 27930, 0, 0, 0, 0, 0, 0, 0, 0, 0, 0, 0, 13170, 0, 0, 0, 0, 0, 0, 0, -1, 0, 0, 0, 0, 0, 0],[0, 0, 0, 0, 0, 0, 0, 34357, 13884, 0, 41878, 0, 0, 0, 0, 0, 0, 0, 0, 0, 0, 8307, 0, 0, 7398, 0, 0, 0, 0, 0, 43702, 22214, 40104, 38259, 0, 0, 0, 0, 31582, 36059, 0, 39215, 0, 14596, 0, 0, 26822, 0, 0, 0, 0, 9582, 0, 0, 0, -1, 0, 0, 0, 0, 0],[0, 0, 10710, 0, 0, 0, 0, 0, 0, 0, 0, 28130, 0, 0, 0, 0, 46102, 0, 42996, 0, 0, 0, 735783720, 0, 0, 0, 0, 0, 9797, 0, 0, 0, 0, 0, 2598, 0, 36161, 11200, 0, 42419, 0, 10396, 34515, 0, 0, 0, 0, 0, 30435, 20461, 0, 0, 0, 42138, 0, 0, -1, 0, 0, 0, 28323],[0, 0, 38962, 0, 41821, 22731, 0, 0, 0, 0, 44940, 0, 0, 0, 0, 0, 42387, 0, 0, 0, 7853, 0, 0, 0, 37962, 0, 0, 0, 0, 0, 0, 0, 0, 34462, 0, 0, 0, 29031, 0, 39068, 0, 17971, 41404, 45438, 0, 29629, 0, 0, 30356, 0, 0, 0, 0, 41661, 0, 0, 0, -1, 0, 0, 0],[0, 35158, 0, 0, 0, 42405, 0, 0, 0, 0, 0, 0, 0, 0, 0, 0, 0, 0, 17814, 0, 0, 0, 38613, 0, 0, 17235, 0, 0, 0, 0, 0, 0, 0, 0, 0, 25992, 0, 0, 0, 0, 0, 0, 24065, 16472, 0, 0, 31592, 39953, 0, 0, 43855, 0, 0, 0, 0, 0, 0, 0, -1, 0, 39484],[0, 31573, 0, 341909967, 0, 0, 0, 0, 0, 0, 0, 43041, 0, 0, 41667, 36611, 35573, 0, 0, 0, 0, 0, 0, 0, 0, 0, 0, 0, 0, 27017, 0, 24571, 0, 40050, 0, 0, 0, 32623, 46155, 0, 0, 0, 0, 33028, 0, 40636, 19485, 0, 0, 0, 1247575983, 45632, 0, 0, 0, 0, 0, 0, 0, -1, 32760],[38089, 0, 0, 35172, 0, 44915, 0, 0, 36314, 0, 27309, 34767, 0, 0, 0, 0, 0, 33932, 0, 33358, 0, 0, 18307, 0, 31948, 0, 0, 0, 0, 0, 0, 0, 0, 0, 17486, 36430, 0, 0, 0, 5694, 0, 0, 0, 0, 0, 0, 13253, 0, 0, 0, 0, 0, 0, 0, 0, 0, 28323, 0, 39484, 32760, -1]]